language Essence 1.3

letting costTC be
        function((1, 1) --> 10, (1, 2) --> 10, (1, 3) --> 3, (1, 4) --> 4, (1, 5) --> 10, (1, 6) --> 5, (1, 7) --> 11,
                 (1, 8) --> 4, (1, 9) --> 8, (2, 1) --> 10, (2, 2) --> 7, (2, 3) --> 3, (2, 4) --> 3, (2, 5) --> 3,
                 (2, 6) --> 6, (2, 7) --> 11, (2, 8) --> 7, (2, 9) --> 6, (3, 1) --> 10, (3, 2) --> 7, (3, 3) --> 13,
                 (3, 4) --> 6, (3, 5) --> 5, (3, 6) --> 8, (3, 7) --> 10, (3, 8) --> 12, (3, 9) --> 10, (4, 1) --> 8,
                 (4, 2) --> 4, (4, 3) --> 3, (4, 4) --> 4, (4, 5) --> 13, (4, 6) --> 4, (4, 7) --> 10, (4, 8) --> 7,
                 (4, 9) --> 5, (5, 1) --> 11, (5, 2) --> 10, (5, 3) --> 9, (5, 4) --> 9, (5, 5) --> 13, (5, 6) --> 12,
                 (5, 7) --> 3, (5, 8) --> 10, (5, 9) --> 9, (6, 1) --> 13, (6, 2) --> 11, (6, 3) --> 5, (6, 4) --> 7,
                 (6, 5) --> 9, (6, 6) --> 4, (6, 7) --> 3, (6, 8) --> 7, (6, 9) --> 6, (7, 1) --> 6, (7, 2) --> 11,
                 (7, 3) --> 10, (7, 4) --> 6, (7, 5) --> 3, (7, 6) --> 3, (7, 7) --> 9, (7, 8) --> 10, (7, 9) --> 10,
                 (8, 1) --> 11, (8, 2) --> 5, (8, 3) --> 5, (8, 4) --> 7, (8, 5) --> 8, (8, 6) --> 3, (8, 7) --> 8,
                 (8, 8) --> 3, (8, 9) --> 10, (9, 1) --> 13, (9, 2) --> 10, (9, 3) --> 9, (9, 4) --> 8, (9, 5) --> 7,
                 (9, 6) --> 6, (9, 7) --> 5, (9, 8) --> 9, (9, 9) --> 5, (10, 1) --> 11, (10, 2) --> 3, (10, 3) --> 3,
                 (10, 4) --> 12, (10, 5) --> 7, (10, 6) --> 6, (10, 7) --> 13, (10, 8) --> 4, (10, 9) --> 12,
                 (11, 1) --> 5, (11, 2) --> 13, (11, 3) --> 12, (11, 4) --> 13, (11, 5) --> 7, (11, 6) --> 10,
                 (11, 7) --> 4, (11, 8) --> 8, (11, 9) --> 9, (12, 1) --> 5, (12, 2) --> 8, (12, 3) --> 7,
                 (12, 4) --> 12, (12, 5) --> 13, (12, 6) --> 5, (12, 7) --> 9, (12, 8) --> 6, (12, 9) --> 7,
                 (13, 1) --> 6, (13, 2) --> 13, (13, 3) --> 6, (13, 4) --> 3, (13, 5) --> 4, (13, 6) --> 12,
                 (13, 7) --> 13, (13, 8) --> 7, (13, 9) --> 5, (14, 1) --> 7, (14, 2) --> 11, (14, 3) --> 4,
                 (14, 4) --> 3, (14, 5) --> 4, (14, 6) --> 5, (14, 7) --> 12, (14, 8) --> 12, (14, 9) --> 11,
                 (15, 1) --> 5, (15, 2) --> 4, (15, 3) --> 4, (15, 4) --> 13, (15, 5) --> 3, (15, 6) --> 12,
                 (15, 7) --> 5, (15, 8) --> 3, (15, 9) --> 10, (16, 1) --> 3, (16, 2) --> 10, (16, 3) --> 4,
                 (16, 4) --> 13, (16, 5) --> 8, (16, 6) --> 12, (16, 7) --> 4, (16, 8) --> 12, (16, 9) --> 7,
                 (17, 1) --> 4, (17, 2) --> 6, (17, 3) --> 4, (17, 4) --> 4, (17, 5) --> 13, (17, 6) --> 9,
                 (17, 7) --> 7, (17, 8) --> 5, (17, 9) --> 13, (18, 1) --> 6, (18, 2) --> 3, (18, 3) --> 12,
                 (18, 4) --> 10, (18, 5) --> 13, (18, 6) --> 8, (18, 7) --> 5, (18, 8) --> 9, (18, 9) --> 8,
                 (19, 1) --> 10, (19, 2) --> 10, (19, 3) --> 9, (19, 4) --> 6, (19, 5) --> 6, (19, 6) --> 6,
                 (19, 7) --> 12, (19, 8) --> 11, (19, 9) --> 3, (20, 1) --> 7, (20, 2) --> 7, (20, 3) --> 4,
                 (20, 4) --> 9, (20, 5) --> 6, (20, 6) --> 12, (20, 7) --> 12, (20, 8) --> 13, (20, 9) --> 12,
                 (21, 1) --> 10, (21, 2) --> 7, (21, 3) --> 6, (21, 4) --> 7, (21, 5) --> 7, (21, 6) --> 6,
                 (21, 7) --> 11, (21, 8) --> 11, (21, 9) --> 6)
letting costWT be
        function((1, 1) --> 1, (1, 2) --> 1, (1, 3) --> 1, (1, 4) --> 1, (1, 5) --> 3, (1, 6) --> 1, (1, 7) --> 3,
                 (1, 8) --> 3, (1, 9) --> 2, (1, 10) --> 1, (1, 11) --> 3, (1, 12) --> 2, (1, 13) --> 2, (1, 14) --> 3,
                 (1, 15) --> 3, (1, 16) --> 1, (1, 17) --> 3, (1, 18) --> 3, (1, 19) --> 3, (1, 20) --> 1,
                 (1, 21) --> 3, (2, 1) --> 3, (2, 2) --> 2, (2, 3) --> 2, (2, 4) --> 3, (2, 5) --> 1, (2, 6) --> 2,
                 (2, 7) --> 3, (2, 8) --> 2, (2, 9) --> 2, (2, 10) --> 1, (2, 11) --> 3, (2, 12) --> 3, (2, 13) --> 2,
                 (2, 14) --> 1, (2, 15) --> 1, (2, 16) --> 2, (2, 17) --> 2, (2, 18) --> 2, (2, 19) --> 2,
                 (2, 20) --> 3, (2, 21) --> 3, (3, 1) --> 2, (3, 2) --> 1, (3, 3) --> 1, (3, 4) --> 2, (3, 5) --> 2,
                 (3, 6) --> 2, (3, 7) --> 1, (3, 8) --> 3, (3, 9) --> 2, (3, 10) --> 1, (3, 11) --> 2, (3, 12) --> 2,
                 (3, 13) --> 2, (3, 14) --> 3, (3, 15) --> 2, (3, 16) --> 2, (3, 17) --> 3, (3, 18) --> 3,
                 (3, 19) --> 3, (3, 20) --> 3, (3, 21) --> 2, (4, 1) --> 2, (4, 2) --> 3, (4, 3) --> 3, (4, 4) --> 3,
                 (4, 5) --> 2, (4, 6) --> 1, (4, 7) --> 1, (4, 8) --> 1, (4, 9) --> 2, (4, 10) --> 3, (4, 11) --> 1,
                 (4, 12) --> 3, (4, 13) --> 3, (4, 14) --> 2, (4, 15) --> 2, (4, 16) --> 3, (4, 17) --> 2,
                 (4, 18) --> 3, (4, 19) --> 3, (4, 20) --> 2, (4, 21) --> 2, (5, 1) --> 2, (5, 2) --> 1, (5, 3) --> 3,
                 (5, 4) --> 3, (5, 5) --> 1, (5, 6) --> 1, (5, 7) --> 1, (5, 8) --> 1, (5, 9) --> 2, (5, 10) --> 1,
                 (5, 11) --> 3, (5, 12) --> 2, (5, 13) --> 1, (5, 14) --> 2, (5, 15) --> 1, (5, 16) --> 1,
                 (5, 17) --> 1, (5, 18) --> 3, (5, 19) --> 1, (5, 20) --> 3, (5, 21) --> 2, (6, 1) --> 3, (6, 2) --> 1,
                 (6, 3) --> 1, (6, 4) --> 3, (6, 5) --> 3, (6, 6) --> 1, (6, 7) --> 2, (6, 8) --> 1, (6, 9) --> 2,
                 (6, 10) --> 1, (6, 11) --> 1, (6, 12) --> 2, (6, 13) --> 1, (6, 14) --> 3, (6, 15) --> 2,
                 (6, 16) --> 3, (6, 17) --> 1, (6, 18) --> 1, (6, 19) --> 3, (6, 20) --> 3, (6, 21) --> 1, (7, 1) --> 3,
                 (7, 2) --> 3, (7, 3) --> 2, (7, 4) --> 2, (7, 5) --> 3, (7, 6) --> 2, (7, 7) --> 2, (7, 8) --> 2,
                 (7, 9) --> 3, (7, 10) --> 3, (7, 11) --> 3, (7, 12) --> 3, (7, 13) --> 2, (7, 14) --> 1, (7, 15) --> 3,
                 (7, 16) --> 3, (7, 17) --> 3, (7, 18) --> 3, (7, 19) --> 1, (7, 20) --> 1, (7, 21) --> 2, (8, 1) --> 3,
                 (8, 2) --> 1, (8, 3) --> 1, (8, 4) --> 1, (8, 5) --> 2, (8, 6) --> 1, (8, 7) --> 2, (8, 8) --> 1,
                 (8, 9) --> 2, (8, 10) --> 3, (8, 11) --> 3, (8, 12) --> 2, (8, 13) --> 1, (8, 14) --> 2, (8, 15) --> 3,
                 (8, 16) --> 2, (8, 17) --> 1, (8, 18) --> 2, (8, 19) --> 1, (8, 20) --> 1, (8, 21) --> 2, (9, 1) --> 1,
                 (9, 2) --> 1, (9, 3) --> 2, (9, 4) --> 2, (9, 5) --> 3, (9, 6) --> 1, (9, 7) --> 3, (9, 8) --> 3,
                 (9, 9) --> 2, (9, 10) --> 2, (9, 11) --> 2, (9, 12) --> 3, (9, 13) --> 3, (9, 14) --> 2, (9, 15) --> 1,
                 (9, 16) --> 2, (9, 17) --> 1, (9, 18) --> 3, (9, 19) --> 2, (9, 20) --> 2, (9, 21) --> 2,
                 (10, 1) --> 1, (10, 2) --> 2, (10, 3) --> 3, (10, 4) --> 2, (10, 5) --> 3, (10, 6) --> 2,
                 (10, 7) --> 2, (10, 8) --> 1, (10, 9) --> 3, (10, 10) --> 3, (10, 11) --> 2, (10, 12) --> 3,
                 (10, 13) --> 2, (10, 14) --> 2, (10, 15) --> 1, (10, 16) --> 2, (10, 17) --> 1, (10, 18) --> 1,
                 (10, 19) --> 2, (10, 20) --> 1, (10, 21) --> 3, (11, 1) --> 3, (11, 2) --> 1, (11, 3) --> 2,
                 (11, 4) --> 1, (11, 5) --> 2, (11, 6) --> 2, (11, 7) --> 1, (11, 8) --> 3, (11, 9) --> 2,
                 (11, 10) --> 2, (11, 11) --> 2, (11, 12) --> 3, (11, 13) --> 2, (11, 14) --> 2, (11, 15) --> 2,
                 (11, 16) --> 1, (11, 17) --> 2, (11, 18) --> 2, (11, 19) --> 1, (11, 20) --> 1, (11, 21) --> 2,
                 (12, 1) --> 3, (12, 2) --> 3, (12, 3) --> 2, (12, 4) --> 1, (12, 5) --> 2, (12, 6) --> 2,
                 (12, 7) --> 1, (12, 8) --> 3, (12, 9) --> 3, (12, 10) --> 1, (12, 11) --> 1, (12, 12) --> 2,
                 (12, 13) --> 1, (12, 14) --> 2, (12, 15) --> 1, (12, 16) --> 1, (12, 17) --> 3, (12, 18) --> 2,
                 (12, 19) --> 2, (12, 20) --> 2, (12, 21) --> 1, (13, 1) --> 3, (13, 2) --> 3, (13, 3) --> 1,
                 (13, 4) --> 3, (13, 5) --> 1, (13, 6) --> 3, (13, 7) --> 1, (13, 8) --> 1, (13, 9) --> 1,
                 (13, 10) --> 3, (13, 11) --> 2, (13, 12) --> 3, (13, 13) --> 2, (13, 14) --> 1, (13, 15) --> 1,
                 (13, 16) --> 3, (13, 17) --> 1, (13, 18) --> 1, (13, 19) --> 1, (13, 20) --> 3, (13, 21) --> 1,
                 (14, 1) --> 1, (14, 2) --> 3, (14, 3) --> 3, (14, 4) --> 1, (14, 5) --> 1, (14, 6) --> 2,
                 (14, 7) --> 3, (14, 8) --> 3, (14, 9) --> 3, (14, 10) --> 2, (14, 11) --> 1, (14, 12) --> 3,
                 (14, 13) --> 1, (14, 14) --> 2, (14, 15) --> 1, (14, 16) --> 2, (14, 17) --> 2, (14, 18) --> 1,
                 (14, 19) --> 1, (14, 20) --> 3, (14, 21) --> 1, (15, 1) --> 1, (15, 2) --> 1, (15, 3) --> 1,
                 (15, 4) --> 3, (15, 5) --> 2, (15, 6) --> 2, (15, 7) --> 2, (15, 8) --> 2, (15, 9) --> 2,
                 (15, 10) --> 3, (15, 11) --> 3, (15, 12) --> 3, (15, 13) --> 2, (15, 14) --> 2, (15, 15) --> 1,
                 (15, 16) --> 1, (15, 17) --> 1, (15, 18) --> 1, (15, 19) --> 3, (15, 20) --> 1, (15, 21) --> 2,
                 (16, 1) --> 2, (16, 2) --> 3, (16, 3) --> 1, (16, 4) --> 3, (16, 5) --> 2, (16, 6) --> 2,
                 (16, 7) --> 3, (16, 8) --> 1, (16, 9) --> 2, (16, 10) --> 2, (16, 11) --> 3, (16, 12) --> 3,
                 (16, 13) --> 1, (16, 14) --> 3, (16, 15) --> 3, (16, 16) --> 1, (16, 17) --> 1, (16, 18) --> 3,
                 (16, 19) --> 3, (16, 20) --> 2, (16, 21) --> 1, (17, 1) --> 1, (17, 2) --> 3, (17, 3) --> 2,
                 (17, 4) --> 2, (17, 5) --> 1, (17, 6) --> 2, (17, 7) --> 1, (17, 8) --> 1, (17, 9) --> 1,
                 (17, 10) --> 1, (17, 11) --> 3, (17, 12) --> 3, (17, 13) --> 1, (17, 14) --> 2, (17, 15) --> 1,
                 (17, 16) --> 1, (17, 17) --> 1, (17, 18) --> 3, (17, 19) --> 2, (17, 20) --> 3, (17, 21) --> 3,
                 (18, 1) --> 1, (18, 2) --> 3, (18, 3) --> 2, (18, 4) --> 1, (18, 5) --> 1, (18, 6) --> 1,
                 (18, 7) --> 1, (18, 8) --> 3, (18, 9) --> 1, (18, 10) --> 2, (18, 11) --> 1, (18, 12) --> 2,
                 (18, 13) --> 3, (18, 14) --> 3, (18, 15) --> 1, (18, 16) --> 2, (18, 17) --> 3, (18, 18) --> 1,
                 (18, 19) --> 3, (18, 20) --> 3, (18, 21) --> 2, (19, 1) --> 1, (19, 2) --> 3, (19, 3) --> 3,
                 (19, 4) --> 2, (19, 5) --> 3, (19, 6) --> 3, (19, 7) --> 2, (19, 8) --> 2, (19, 9) --> 3,
                 (19, 10) --> 1, (19, 11) --> 3, (19, 12) --> 1, (19, 13) --> 3, (19, 14) --> 1, (19, 15) --> 3,
                 (19, 16) --> 3, (19, 17) --> 1, (19, 18) --> 3, (19, 19) --> 2, (19, 20) --> 3, (19, 21) --> 2,
                 (20, 1) --> 2, (20, 2) --> 3, (20, 3) --> 3, (20, 4) --> 1, (20, 5) --> 2, (20, 6) --> 2,
                 (20, 7) --> 2, (20, 8) --> 2, (20, 9) --> 1, (20, 10) --> 1, (20, 11) --> 1, (20, 12) --> 3,
                 (20, 13) --> 1, (20, 14) --> 1, (20, 15) --> 1, (20, 16) --> 2, (20, 17) --> 2, (20, 18) --> 2,
                 (20, 19) --> 2, (20, 20) --> 2, (20, 21) --> 2, (21, 1) --> 1, (21, 2) --> 3, (21, 3) --> 2,
                 (21, 4) --> 3, (21, 5) --> 3, (21, 6) --> 2, (21, 7) --> 2, (21, 8) --> 3, (21, 9) --> 3,
                 (21, 10) --> 3, (21, 11) --> 2, (21, 12) --> 3, (21, 13) --> 3, (21, 14) --> 3, (21, 15) --> 1,
                 (21, 16) --> 1, (21, 17) --> 2, (21, 18) --> 3, (21, 19) --> 2, (21, 20) --> 3, (21, 21) --> 3,
                 (22, 1) --> 1, (22, 2) --> 3, (22, 3) --> 2, (22, 4) --> 1, (22, 5) --> 3, (22, 6) --> 2,
                 (22, 7) --> 1, (22, 8) --> 2, (22, 9) --> 3, (22, 10) --> 3, (22, 11) --> 3, (22, 12) --> 2,
                 (22, 13) --> 2, (22, 14) --> 2, (22, 15) --> 3, (22, 16) --> 3, (22, 17) --> 1, (22, 18) --> 2,
                 (22, 19) --> 2, (22, 20) --> 2, (22, 21) --> 2, (23, 1) --> 2, (23, 2) --> 1, (23, 3) --> 3,
                 (23, 4) --> 3, (23, 5) --> 2, (23, 6) --> 1, (23, 7) --> 2, (23, 8) --> 2, (23, 9) --> 3,
                 (23, 10) --> 3, (23, 11) --> 3, (23, 12) --> 1, (23, 13) --> 2, (23, 14) --> 1, (23, 15) --> 3,
                 (23, 16) --> 3, (23, 17) --> 3, (23, 18) --> 1, (23, 19) --> 1, (23, 20) --> 2, (23, 21) --> 1,
                 (24, 1) --> 1, (24, 2) --> 2, (24, 3) --> 3, (24, 4) --> 3, (24, 5) --> 3, (24, 6) --> 2,
                 (24, 7) --> 1, (24, 8) --> 2, (24, 9) --> 3, (24, 10) --> 2, (24, 11) --> 1, (24, 12) --> 3,
                 (24, 13) --> 2, (24, 14) --> 2, (24, 15) --> 2, (24, 16) --> 2, (24, 17) --> 3, (24, 18) --> 2,
                 (24, 19) --> 3, (24, 20) --> 2, (24, 21) --> 2, (25, 1) --> 1, (25, 2) --> 1, (25, 3) --> 1,
                 (25, 4) --> 2, (25, 5) --> 3, (25, 6) --> 3, (25, 7) --> 3, (25, 8) --> 3, (25, 9) --> 1,
                 (25, 10) --> 3, (25, 11) --> 2, (25, 12) --> 1, (25, 13) --> 1, (25, 14) --> 1, (25, 15) --> 3,
                 (25, 16) --> 3, (25, 17) --> 2, (25, 18) --> 3, (25, 19) --> 2, (25, 20) --> 2, (25, 21) --> 3,
                 (26, 1) --> 2, (26, 2) --> 1, (26, 3) --> 2, (26, 4) --> 2, (26, 5) --> 3, (26, 6) --> 3,
                 (26, 7) --> 2, (26, 8) --> 2, (26, 9) --> 1, (26, 10) --> 1, (26, 11) --> 1, (26, 12) --> 2,
                 (26, 13) --> 1, (26, 14) --> 2, (26, 15) --> 3, (26, 16) --> 2, (26, 17) --> 1, (26, 18) --> 1,
                 (26, 19) --> 1, (26, 20) --> 2, (26, 21) --> 2, (27, 1) --> 3, (27, 2) --> 2, (27, 3) --> 1,
                 (27, 4) --> 3, (27, 5) --> 2, (27, 6) --> 1, (27, 7) --> 2, (27, 8) --> 1, (27, 9) --> 1,
                 (27, 10) --> 3, (27, 11) --> 2, (27, 12) --> 1, (27, 13) --> 2, (27, 14) --> 2, (27, 15) --> 3,
                 (27, 16) --> 3, (27, 17) --> 3, (27, 18) --> 1, (27, 19) --> 2, (27, 20) --> 2, (27, 21) --> 3,
                 (28, 1) --> 3, (28, 2) --> 1, (28, 3) --> 3, (28, 4) --> 1, (28, 5) --> 2, (28, 6) --> 2,
                 (28, 7) --> 3, (28, 8) --> 3, (28, 9) --> 2, (28, 10) --> 2, (28, 11) --> 3, (28, 12) --> 3,
                 (28, 13) --> 1, (28, 14) --> 3, (28, 15) --> 1, (28, 16) --> 3, (28, 17) --> 2, (28, 18) --> 2,
                 (28, 19) --> 3, (28, 20) --> 3, (28, 21) --> 2, (29, 1) --> 1, (29, 2) --> 1, (29, 3) --> 1,
                 (29, 4) --> 2, (29, 5) --> 2, (29, 6) --> 1, (29, 7) --> 1, (29, 8) --> 3, (29, 9) --> 2,
                 (29, 10) --> 3, (29, 11) --> 2, (29, 12) --> 1, (29, 13) --> 1, (29, 14) --> 1, (29, 15) --> 3,
                 (29, 16) --> 3, (29, 17) --> 2, (29, 18) --> 2, (29, 19) --> 2, (29, 20) --> 1, (29, 21) --> 2,
                 (30, 1) --> 3, (30, 2) --> 1, (30, 3) --> 2, (30, 4) --> 3, (30, 5) --> 2, (30, 6) --> 3,
                 (30, 7) --> 1, (30, 8) --> 2, (30, 9) --> 1, (30, 10) --> 3, (30, 11) --> 2, (30, 12) --> 2,
                 (30, 13) --> 2, (30, 14) --> 3, (30, 15) --> 2, (30, 16) --> 3, (30, 17) --> 3, (30, 18) --> 3,
                 (30, 19) --> 1, (30, 20) --> 2, (30, 21) --> 2, (31, 1) --> 2, (31, 2) --> 1, (31, 3) --> 1,
                 (31, 4) --> 3, (31, 5) --> 1, (31, 6) --> 2, (31, 7) --> 3, (31, 8) --> 2, (31, 9) --> 3,
                 (31, 10) --> 1, (31, 11) --> 2, (31, 12) --> 3, (31, 13) --> 3, (31, 14) --> 1, (31, 15) --> 1,
                 (31, 16) --> 3, (31, 17) --> 3, (31, 18) --> 1, (31, 19) --> 3, (31, 20) --> 3, (31, 21) --> 3,
                 (32, 1) --> 1, (32, 2) --> 2, (32, 3) --> 1, (32, 4) --> 3, (32, 5) --> 2, (32, 6) --> 1,
                 (32, 7) --> 2, (32, 8) --> 3, (32, 9) --> 2, (32, 10) --> 2, (32, 11) --> 3, (32, 12) --> 3,
                 (32, 13) --> 3, (32, 14) --> 1, (32, 15) --> 3, (32, 16) --> 3, (32, 17) --> 1, (32, 18) --> 3,
                 (32, 19) --> 2, (32, 20) --> 2, (32, 21) --> 1, (33, 1) --> 3, (33, 2) --> 1, (33, 3) --> 3,
                 (33, 4) --> 3, (33, 5) --> 3, (33, 6) --> 3, (33, 7) --> 2, (33, 8) --> 2, (33, 9) --> 1,
                 (33, 10) --> 3, (33, 11) --> 3, (33, 12) --> 1, (33, 13) --> 3, (33, 14) --> 1, (33, 15) --> 1,
                 (33, 16) --> 3, (33, 17) --> 1, (33, 18) --> 3, (33, 19) --> 3, (33, 20) --> 2, (33, 21) --> 3,
                 (34, 1) --> 1, (34, 2) --> 3, (34, 3) --> 2, (34, 4) --> 1, (34, 5) --> 1, (34, 6) --> 1,
                 (34, 7) --> 1, (34, 8) --> 2, (34, 9) --> 1, (34, 10) --> 2, (34, 11) --> 2, (34, 12) --> 2,
                 (34, 13) --> 3, (34, 14) --> 2, (34, 15) --> 3, (34, 16) --> 3, (34, 17) --> 2, (34, 18) --> 2,
                 (34, 19) --> 3, (34, 20) --> 1, (34, 21) --> 2, (35, 1) --> 1, (35, 2) --> 1, (35, 3) --> 1,
                 (35, 4) --> 1, (35, 5) --> 1, (35, 6) --> 2, (35, 7) --> 2, (35, 8) --> 2, (35, 9) --> 1,
                 (35, 10) --> 3, (35, 11) --> 2, (35, 12) --> 3, (35, 13) --> 1, (35, 14) --> 2, (35, 15) --> 1,
                 (35, 16) --> 1, (35, 17) --> 1, (35, 18) --> 2, (35, 19) --> 1, (35, 20) --> 2, (35, 21) --> 3)
letting demand be function(1 --> 3, 2 --> 3, 3 --> 3, 4 --> 3, 5 --> 3, 6 --> 3, 7 --> 3, 8 --> 3, 9 --> 3)
letting maxCost be 46
letting n_customer be 9
letting n_transshipment be 21
letting n_warehouses be 35
letting stock be
        function(1 --> 19, 2 --> 1, 3 --> 5, 4 --> 17, 5 --> 4, 6 --> 18, 7 --> 9, 8 --> 13, 9 --> 5, 10 --> 20,
                 11 --> 10, 12 --> 2, 13 --> 6, 14 --> 5, 15 --> 18, 16 --> 14, 17 --> 2, 18 --> 6, 19 --> 15, 20 --> 3,
                 21 --> 13, 22 --> 18, 23 --> 11, 24 --> 11, 25 --> 14, 26 --> 18, 27 --> 7, 28 --> 9, 29 --> 11,
                 30 --> 10, 31 --> 17, 32 --> 20, 33 --> 14, 34 --> 4, 35 --> 3)
